archive/demo_outputs/rsa_demo_benchmark_output/64/certs/0002.assert.smt2
; benchmark generated from python API
(set-info :status unknown)
(declare-fun p () Int)
(declare-fun q () Int)
(declare-fun n () Int)
(assert
 (= p 2847721627))
(assert
 (= q 3902067671))
(assert
 (= n 11112002496724220717))
(assert
 (let ((?x31 (* p q)))
 (= ?x31 n)))
(assert
 (> p 1))
(assert
 (> q 1))
(check-sat)
